\ Model Inv_facility
\ LP format - for model browsing. Use MPS format to capture full model detail.
Minimize
  C0 + C1 + C2 + C3 + C4 + C5 + C6 + C7 + C8 + C9 + C10 + C11 + C12 + C13
   + C14 + C15 + C16 + C17 + C18 + C19 + C20 + C21 + C22 + C23 + C24 + C25
   + C26 + C27 + C28 + C29 + C30 + C31 + C32 + C33 + C34 + C35 + C36 + C37
   + C38 + C39
Subject To
 R0: C0 + C1 + C2 + C4 + C11 + C13 + C14 - C20 - C21 - C22 - C24 - C31
   - C33 - C34 = -86
 R1: C0 + C4 + C5 + C6 + C7 - C20 - C24 - C25 - C26 - C27 >= 1
 R2: C0 + C1 + C4 + C5 + C6 + C11 - C20 - C21 - C24 - C25 - C26 - C31
   >= -42
 R3: C0 + C2 + C4 + C5 + C6 + C15 - C20 - C22 - C24 - C25 - C26 - C35
   >= -53
 R4: C0 + C3 + C4 + C5 + C6 + C19 - C20 - C23 - C24 - C25 - C26 - C39
   >= -53
 R5: C0 + C1 + C4 + C5 + C7 + C10 - C20 - C21 - C24 - C25 - C27 - C30
   >= -31
 R6: C0 + C1 + C4 + C5 + C10 + C11 - C20 - C21 - C24 - C25 - C30 - C31
   >= -30
 R7: C0 + C1 + C2 + C4 + C5 + C10 + C15 - C20 - C21 - C22 - C24 - C25 - C30
   - C35 >= -85
 R8: C0 + C1 + C3 + C4 + C5 + C10 + C19 - C20 - C21 - C23 - C24 - C25 - C30
   - C39 >= -85
 R9: C0 + C2 + C4 + C5 + C7 + C14 - C20 - C22 - C24 - C25 - C27 - C34
   >= -42
 R10: C0 + C1 + C2 + C4 + C5 + C11 + C14 - C20 - C21 - C22 - C24 - C25
   - C31 - C34 >= -85
 R11: C0 + C2 + C4 + C5 + C14 + C15 - C20 - C22 - C24 - C25 - C34 - C35
   >= -47
 R12: C0 + C2 + C3 + C4 + C5 + C14 + C19 - C20 - C22 - C23 - C24 - C25
   - C34 - C39 >= -96
 R13: C0 + C3 + C4 + C5 + C7 + C18 - C20 - C23 - C24 - C25 - C27 - C38
   >= -37
 R14: C0 + C1 + C3 + C4 + C5 + C11 + C18 - C20 - C21 - C23 - C24 - C25
   - C31 - C38 >= -80
 R15: C0 + C2 + C3 + C4 + C5 + C15 + C18 - C20 - C22 - C23 - C24 - C25
   - C35 - C38 >= -91
 R16: C0 + C3 + C4 + C5 + C18 + C19 - C20 - C23 - C24 - C25 - C38 - C39
   >= -54
 R17: C0 + C1 + C4 + C6 + C7 + C9 - C20 - C21 - C24 - C26 - C27 - C29
   >= -29
 R18: C0 + C1 + C4 + C6 + C9 + C11 - C20 - C21 - C24 - C26 - C29 - C31
   >= -28
 R19: C0 + C1 + C2 + C4 + C6 + C9 + C15 - C20 - C21 - C22 - C24 - C26 - C29
   - C35 >= -83
 R20: C0 + C1 + C3 + C4 + C6 + C9 + C19 - C20 - C21 - C23 - C24 - C26 - C29
   - C39 >= -83
 R21: C0 + C1 + C4 + C7 + C9 + C10 - C20 - C21 - C24 - C27 - C29 - C30
   >= -17
 R22: C0 + C1 + C4 + C9 + C10 + C11 - C20 - C21 - C24 - C29 - C30 - C31
   >= -16
 R23: C0 + C1 + C2 + C4 + C9 + C10 + C15 - C20 - C21 - C22 - C24 - C29
   - C30 - C35 >= -71
 R24: C0 + C1 + C3 + C4 + C9 + C10 + C19 - C20 - C21 - C23 - C24 - C29
   - C30 - C39 >= -71
 R25: C0 + C1 + C2 + C4 + C7 + C9 + C14 - C20 - C21 - C22 - C24 - C27 - C29
   - C34 >= -72
 R26: C0 + C1 + C2 + C4 + C9 + C11 + C14 - C20 - C21 - C22 - C24 - C29
   - C31 - C34 >= -71
 R27: C0 + C1 + C2 + C4 + C9 + C14 + C15 - C20 - C21 - C22 - C24 - C29
   - C34 - C35 >= -77
 R28: C0 + C1 + C2 + C3 + C4 + C9 + C14 + C19 - C20 - C21 - C22 - C23 - C24
   - C29 - C34 - C39 >= -126
 R29: C0 + C1 + C3 + C4 + C7 + C9 + C18 - C20 - C21 - C23 - C24 - C27 - C29
   - C38 >= -67
 R30: C0 + C1 + C3 + C4 + C9 + C11 + C18 - C20 - C21 - C23 - C24 - C29
   - C31 - C38 >= -66
 R31: C0 + C1 + C2 + C3 + C4 + C9 + C15 + C18 - C20 - C21 - C22 - C23 - C24
   - C29 - C35 - C38 >= -121
 R32: C0 + C1 + C3 + C4 + C9 + C18 + C19 - C20 - C21 - C23 - C24 - C29
   - C38 - C39 >= -84
 R33: C0 + C2 + C4 + C6 + C7 + C13 - C20 - C22 - C24 - C26 - C27 - C33
   >= -49
 R34: C0 + C1 + C2 + C4 + C6 + C11 + C13 - C20 - C21 - C22 - C24 - C26
   - C31 - C33 >= -92
 R35: C0 + C2 + C4 + C6 + C13 + C15 - C20 - C22 - C24 - C26 - C33 - C35
   >= -54
 R36: C0 + C2 + C3 + C4 + C6 + C13 + C19 - C20 - C22 - C23 - C24 - C26
   - C33 - C39 >= -103
 R37: C0 + C1 + C2 + C4 + C7 + C10 + C13 - C20 - C21 - C22 - C24 - C27
   - C30 - C33 >= -81
 R38: C0 + C1 + C2 + C4 + C10 + C11 + C13 - C20 - C21 - C22 - C24 - C30
   - C31 - C33 >= -80
 R39: C0 + C1 + C2 + C4 + C10 + C13 + C15 - C20 - C21 - C22 - C24 - C30
   - C33 - C35 >= -86
 R40: C0 + C1 + C2 + C3 + C4 + C10 + C13 + C19 - C20 - C21 - C22 - C23
   - C24 - C30 - C33 - C39 >= -135
 R41: C0 + C2 + C4 + C7 + C13 + C14 - C20 - C22 - C24 - C27 - C33 - C34
   >= -43
 R42: C0 + C1 + C2 + C4 + C11 + C13 + C14 - C20 - C21 - C22 - C24 - C31
   - C33 - C34 >= -86
 R43: C0 + C2 + C4 + C13 + C14 + C15 - C20 - C22 - C24 - C33 - C34 - C35
   >= -48
 R44: C0 + C2 + C3 + C4 + C13 + C14 + C19 - C20 - C22 - C23 - C24 - C33
   - C34 - C39 >= -97
 R45: C0 + C2 + C3 + C4 + C7 + C13 + C18 - C20 - C22 - C23 - C24 - C27
   - C33 - C38 >= -87
 R46: C0 + C1 + C2 + C3 + C4 + C11 + C13 + C18 - C20 - C21 - C22 - C23
   - C24 - C31 - C33 - C38 >= -130
 R47: C0 + C2 + C3 + C4 + C13 + C15 + C18 - C20 - C22 - C23 - C24 - C33
   - C35 - C38 >= -92
 R48: C0 + C2 + C3 + C4 + C13 + C18 + C19 - C20 - C22 - C23 - C24 - C33
   - C38 - C39 >= -104
 R49: C0 + C3 + C4 + C6 + C7 + C17 - C20 - C23 - C24 - C26 - C27 - C37
   >= -37
 R50: C0 + C1 + C3 + C4 + C6 + C11 + C17 - C20 - C21 - C23 - C24 - C26
   - C31 - C37 >= -80
 R51: C0 + C2 + C3 + C4 + C6 + C15 + C17 - C20 - C22 - C23 - C24 - C26
   - C35 - C37 >= -91
 R52: C0 + C3 + C4 + C6 + C17 + C19 - C20 - C23 - C24 - C26 - C37 - C39
   >= -54
 R53: C0 + C1 + C3 + C4 + C7 + C10 + C17 - C20 - C21 - C23 - C24 - C27
   - C30 - C37 >= -69
 R54: C0 + C1 + C3 + C4 + C10 + C11 + C17 - C20 - C21 - C23 - C24 - C30
   - C31 - C37 >= -68
 R55: C0 + C1 + C2 + C3 + C4 + C10 + C15 + C17 - C20 - C21 - C22 - C23
   - C24 - C30 - C35 - C37 >= -123
 R56: C0 + C1 + C3 + C4 + C10 + C17 + C19 - C20 - C21 - C23 - C24 - C30
   - C37 - C39 >= -86
 R57: C0 + C2 + C3 + C4 + C7 + C14 + C17 - C20 - C22 - C23 - C24 - C27
   - C34 - C37 >= -80
 R58: C0 + C1 + C2 + C3 + C4 + C11 + C14 + C17 - C20 - C21 - C22 - C23
   - C24 - C31 - C34 - C37 >= -123
 R59: C0 + C2 + C3 + C4 + C14 + C15 + C17 - C20 - C22 - C23 - C24 - C34
   - C35 - C37 >= -85
 R60: C0 + C2 + C3 + C4 + C14 + C17 + C19 - C20 - C22 - C23 - C24 - C34
   - C37 - C39 >= -97
 R61: C0 + C3 + C4 + C7 + C17 + C18 - C20 - C23 - C24 - C27 - C37 - C38
   >= -38
 R62: C0 + C1 + C3 + C4 + C11 + C17 + C18 - C20 - C21 - C23 - C24 - C31
   - C37 - C38 >= -81
 R63: C0 + C2 + C3 + C4 + C15 + C17 + C18 - C20 - C22 - C23 - C24 - C35
   - C37 - C38 >= -92
 R64: C0 + C3 + C4 + C17 + C18 + C19 - C20 - C23 - C24 - C37 - C38 - C39
   >= -55
 R65: C0 + C1 + C5 + C6 + C7 + C8 - C20 - C21 - C25 - C26 - C27 - C28
   >= -29
 R66: C0 + C1 + C5 + C6 + C8 + C11 - C20 - C21 - C25 - C26 - C28 - C31
   >= -28
 R67: C0 + C1 + C2 + C5 + C6 + C8 + C15 - C20 - C21 - C22 - C25 - C26 - C28
   - C35 >= -83
 R68: C0 + C1 + C3 + C5 + C6 + C8 + C19 - C20 - C21 - C23 - C25 - C26 - C28
   - C39 >= -83
 R69: C0 + C1 + C5 + C7 + C8 + C10 - C20 - C21 - C25 - C27 - C28 - C30
   >= -17
 R70: C0 + C1 + C5 + C8 + C10 + C11 - C20 - C21 - C25 - C28 - C30 - C31
   >= -16
 R71: C0 + C1 + C2 + C5 + C8 + C10 + C15 - C20 - C21 - C22 - C25 - C28
   - C30 - C35 >= -71
 R72: C0 + C1 + C3 + C5 + C8 + C10 + C19 - C20 - C21 - C23 - C25 - C28
   - C30 - C39 >= -71
 R73: C0 + C1 + C2 + C5 + C7 + C8 + C14 - C20 - C21 - C22 - C25 - C27 - C28
   - C34 >= -72
 R74: C0 + C1 + C2 + C5 + C8 + C11 + C14 - C20 - C21 - C22 - C25 - C28
   - C31 - C34 >= -71
 R75: C0 + C1 + C2 + C5 + C8 + C14 + C15 - C20 - C21 - C22 - C25 - C28
   - C34 - C35 >= -77
 R76: C0 + C1 + C2 + C3 + C5 + C8 + C14 + C19 - C20 - C21 - C22 - C23 - C25
   - C28 - C34 - C39 >= -126
 R77: C0 + C1 + C3 + C5 + C7 + C8 + C18 - C20 - C21 - C23 - C25 - C27 - C28
   - C38 >= -67
 R78: C0 + C1 + C3 + C5 + C8 + C11 + C18 - C20 - C21 - C23 - C25 - C28
   - C31 - C38 >= -66
 R79: C0 + C1 + C2 + C3 + C5 + C8 + C15 + C18 - C20 - C21 - C22 - C23 - C25
   - C28 - C35 - C38 >= -121
 R80: C0 + C1 + C3 + C5 + C8 + C18 + C19 - C20 - C21 - C23 - C25 - C28
   - C38 - C39 >= -84
 R81: C0 + C1 + C6 + C7 + C8 + C9 - C20 - C21 - C26 - C27 - C28 - C29
   >= -15
 R82: C0 + C1 + C6 + C8 + C9 + C11 - C20 - C21 - C26 - C28 - C29 - C31
   >= -14
 R83: C0 + C1 + C2 + C6 + C8 + C9 + C15 - C20 - C21 - C22 - C26 - C28 - C29
   - C35 >= -69
 R84: C0 + C1 + C3 + C6 + C8 + C9 + C19 - C20 - C21 - C23 - C26 - C28 - C29
   - C39 >= -69
 R85: C0 + C1 + C7 + C8 + C9 + C10 - C20 - C21 - C27 - C28 - C29 - C30
   >= -3
 R86: C1 + C8 + C9 + C10 + C11 - C21 - C28 - C29 - C30 - C31 >= 9
 R87: C1 + C2 + C8 + C9 + C10 + C15 - C21 - C22 - C28 - C29 - C30 - C35
   >= -46
 R88: C1 + C3 + C8 + C9 + C10 + C19 - C21 - C23 - C28 - C29 - C30 - C39
   >= -46
 R89: C0 + C1 + C2 + C7 + C8 + C9 + C14 - C20 - C21 - C22 - C27 - C28 - C29
   - C34 >= -58
 R90: C1 + C2 + C8 + C9 + C11 + C14 - C21 - C22 - C28 - C29 - C31 - C34
   >= -46
 R91: C1 + C2 + C8 + C9 + C14 + C15 - C21 - C22 - C28 - C29 - C34 - C35
   >= -52
 R92: C1 + C2 + C3 + C8 + C9 + C14 + C19 - C21 - C22 - C23 - C28 - C29
   - C34 - C39 >= -101
 R93: C0 + C1 + C3 + C7 + C8 + C9 + C18 - C20 - C21 - C23 - C27 - C28 - C29
   - C38 >= -53
 R94: C1 + C3 + C8 + C9 + C11 + C18 - C21 - C23 - C28 - C29 - C31 - C38
   >= -41
 R95: C1 + C2 + C3 + C8 + C9 + C15 + C18 - C21 - C22 - C23 - C28 - C29
   - C35 - C38 >= -96
 R96: C1 + C3 + C8 + C9 + C18 + C19 - C21 - C23 - C28 - C29 - C38 - C39
   >= -59
 R97: C0 + C1 + C2 + C6 + C7 + C8 + C13 - C20 - C21 - C22 - C26 - C27 - C28
   - C33 >= -79
 R98: C0 + C1 + C2 + C6 + C8 + C11 + C13 - C20 - C21 - C22 - C26 - C28
   - C31 - C33 >= -78
 R99: C0 + C1 + C2 + C6 + C8 + C13 + C15 - C20 - C21 - C22 - C26 - C28
   - C33 - C35 >= -84
 R100: C0 + C1 + C2 + C3 + C6 + C8 + C13 + C19 - C20 - C21 - C22 - C23
   - C26 - C28 - C33 - C39 >= -133
 R101: C0 + C1 + C2 + C7 + C8 + C10 + C13 - C20 - C21 - C22 - C27 - C28
   - C30 - C33 >= -67
 R102: C1 + C2 + C8 + C10 + C11 + C13 - C21 - C22 - C28 - C30 - C31 - C33
   >= -55
 R103: C1 + C2 + C8 + C10 + C13 + C15 - C21 - C22 - C28 - C30 - C33 - C35
   >= -61
 R104: C1 + C2 + C3 + C8 + C10 + C13 + C19 - C21 - C22 - C23 - C28 - C30
   - C33 - C39 >= -110
 R105: C0 + C1 + C2 + C7 + C8 + C13 + C14 - C20 - C21 - C22 - C27 - C28
   - C33 - C34 >= -73
 R106: C1 + C2 + C8 + C11 + C13 + C14 - C21 - C22 - C28 - C31 - C33 - C34
   >= -61
 R107: C1 + C2 + C8 + C13 + C14 + C15 - C21 - C22 - C28 - C33 - C34 - C35
   >= -67
 R108: C1 + C2 + C3 + C8 + C13 + C14 + C19 - C21 - C22 - C23 - C28 - C33
   - C34 - C39 >= -116
 R109: C0 + C1 + C2 + C3 + C7 + C8 + C13 + C18 - C20 - C21 - C22 - C23
   - C27 - C28 - C33 - C38 >= -117
 R110: C1 + C2 + C3 + C8 + C11 + C13 + C18 - C21 - C22 - C23 - C28 - C31
   - C33 - C38 >= -105
 R111: C1 + C2 + C3 + C8 + C13 + C15 + C18 - C21 - C22 - C23 - C28 - C33
   - C35 - C38 >= -111
 R112: C1 + C2 + C3 + C8 + C13 + C18 + C19 - C21 - C22 - C23 - C28 - C33
   - C38 - C39 >= -123
 R113: C0 + C1 + C3 + C6 + C7 + C8 + C17 - C20 - C21 - C23 - C26 - C27
   - C28 - C37 >= -67
 R114: C0 + C1 + C3 + C6 + C8 + C11 + C17 - C20 - C21 - C23 - C26 - C28
   - C31 - C37 >= -66
 R115: C0 + C1 + C2 + C3 + C6 + C8 + C15 + C17 - C20 - C21 - C22 - C23
   - C26 - C28 - C35 - C37 >= -121
 R116: C0 + C1 + C3 + C6 + C8 + C17 + C19 - C20 - C21 - C23 - C26 - C28
   - C37 - C39 >= -84
 R117: C0 + C1 + C3 + C7 + C8 + C10 + C17 - C20 - C21 - C23 - C27 - C28
   - C30 - C37 >= -55
 R118: C1 + C3 + C8 + C10 + C11 + C17 - C21 - C23 - C28 - C30 - C31 - C37
   >= -43
 R119: C1 + C2 + C3 + C8 + C10 + C15 + C17 - C21 - C22 - C23 - C28 - C30
   - C35 - C37 >= -98
 R120: C1 + C3 + C8 + C10 + C17 + C19 - C21 - C23 - C28 - C30 - C37 - C39
   >= -61
 R121: C0 + C1 + C2 + C3 + C7 + C8 + C14 + C17 - C20 - C21 - C22 - C23
   - C27 - C28 - C34 - C37 >= -110
 R122: C1 + C2 + C3 + C8 + C11 + C14 + C17 - C21 - C22 - C23 - C28 - C31
   - C34 - C37 >= -98
 R123: C1 + C2 + C3 + C8 + C14 + C15 + C17 - C21 - C22 - C23 - C28 - C34
   - C35 - C37 >= -104
 R124: C1 + C2 + C3 + C8 + C14 + C17 + C19 - C21 - C22 - C23 - C28 - C34
   - C37 - C39 >= -116
 R125: C0 + C1 + C3 + C7 + C8 + C17 + C18 - C20 - C21 - C23 - C27 - C28
   - C37 - C38 >= -68
 R126: C1 + C3 + C8 + C11 + C17 + C18 - C21 - C23 - C28 - C31 - C37 - C38
   >= -56
 R127: C1 + C2 + C3 + C8 + C15 + C17 + C18 - C21 - C22 - C23 - C28 - C35
   - C37 - C38 >= -111
 R128: C1 + C3 + C8 + C17 + C18 + C19 - C21 - C23 - C28 - C37 - C38 - C39
   >= -74
 R129: C0 + C2 + C5 + C6 + C7 + C12 - C20 - C22 - C25 - C26 - C27 - C32
   >= -42
 R130: C0 + C1 + C2 + C5 + C6 + C11 + C12 - C20 - C21 - C22 - C25 - C26
   - C31 - C32 >= -85
 R131: C0 + C2 + C5 + C6 + C12 + C15 - C20 - C22 - C25 - C26 - C32 - C35
   >= -47
 R132: C0 + C2 + C3 + C5 + C6 + C12 + C19 - C20 - C22 - C23 - C25 - C26
   - C32 - C39 >= -96
 R133: C0 + C1 + C2 + C5 + C7 + C10 + C12 - C20 - C21 - C22 - C25 - C27
   - C30 - C32 >= -74
 R134: C0 + C1 + C2 + C5 + C10 + C11 + C12 - C20 - C21 - C22 - C25 - C30
   - C31 - C32 >= -73
 R135: C0 + C1 + C2 + C5 + C10 + C12 + C15 - C20 - C21 - C22 - C25 - C30
   - C32 - C35 >= -79
 R136: C0 + C1 + C2 + C3 + C5 + C10 + C12 + C19 - C20 - C21 - C22 - C23
   - C25 - C30 - C32 - C39 >= -128
 R137: C0 + C2 + C5 + C7 + C12 + C14 - C20 - C22 - C25 - C27 - C32 - C34
   >= -36
 R138: C0 + C1 + C2 + C5 + C11 + C12 + C14 - C20 - C21 - C22 - C25 - C31
   - C32 - C34 >= -79
 R139: C0 + C2 + C5 + C12 + C14 + C15 - C20 - C22 - C25 - C32 - C34 - C35
   >= -41
 R140: C0 + C2 + C3 + C5 + C12 + C14 + C19 - C20 - C22 - C23 - C25 - C32
   - C34 - C39 >= -90
 R141: C0 + C2 + C3 + C5 + C7 + C12 + C18 - C20 - C22 - C23 - C25 - C27
   - C32 - C38 >= -80
 R142: C0 + C1 + C2 + C3 + C5 + C11 + C12 + C18 - C20 - C21 - C22 - C23
   - C25 - C31 - C32 - C38 >= -123
 R143: C0 + C2 + C3 + C5 + C12 + C15 + C18 - C20 - C22 - C23 - C25 - C32
   - C35 - C38 >= -85
 R144: C0 + C2 + C3 + C5 + C12 + C18 + C19 - C20 - C22 - C23 - C25 - C32
   - C38 - C39 >= -97
 R145: C0 + C1 + C2 + C6 + C7 + C9 + C12 - C20 - C21 - C22 - C26 - C27
   - C29 - C32 >= -72
 R146: C0 + C1 + C2 + C6 + C9 + C11 + C12 - C20 - C21 - C22 - C26 - C29
   - C31 - C32 >= -71
 R147: C0 + C1 + C2 + C6 + C9 + C12 + C15 - C20 - C21 - C22 - C26 - C29
   - C32 - C35 >= -77
 R148: C0 + C1 + C2 + C3 + C6 + C9 + C12 + C19 - C20 - C21 - C22 - C23
   - C26 - C29 - C32 - C39 >= -126
 R149: C0 + C1 + C2 + C7 + C9 + C10 + C12 - C20 - C21 - C22 - C27 - C29
   - C30 - C32 >= -60
 R150: C1 + C2 + C9 + C10 + C11 + C12 - C21 - C22 - C29 - C30 - C31 - C32
   >= -48
 R151: C1 + C2 + C9 + C10 + C12 + C15 - C21 - C22 - C29 - C30 - C32 - C35
   >= -54
 R152: C1 + C2 + C3 + C9 + C10 + C12 + C19 - C21 - C22 - C23 - C29 - C30
   - C32 - C39 >= -103
 R153: C0 + C1 + C2 + C7 + C9 + C12 + C14 - C20 - C21 - C22 - C27 - C29
   - C32 - C34 >= -66
 R154: C1 + C2 + C9 + C11 + C12 + C14 - C21 - C22 - C29 - C31 - C32 - C34
   >= -54
 R155: C1 + C2 + C9 + C12 + C14 + C15 - C21 - C22 - C29 - C32 - C34 - C35
   >= -60
 R156: C1 + C2 + C3 + C9 + C12 + C14 + C19 - C21 - C22 - C23 - C29 - C32
   - C34 - C39 >= -109
 R157: C0 + C1 + C2 + C3 + C7 + C9 + C12 + C18 - C20 - C21 - C22 - C23
   - C27 - C29 - C32 - C38 >= -110
 R158: C1 + C2 + C3 + C9 + C11 + C12 + C18 - C21 - C22 - C23 - C29 - C31
   - C32 - C38 >= -98
 R159: C1 + C2 + C3 + C9 + C12 + C15 + C18 - C21 - C22 - C23 - C29 - C32
   - C35 - C38 >= -104
 R160: C1 + C2 + C3 + C9 + C12 + C18 + C19 - C21 - C22 - C23 - C29 - C32
   - C38 - C39 >= -116
 R161: C0 + C2 + C6 + C7 + C12 + C13 - C20 - C22 - C26 - C27 - C32 - C33
   >= -43
 R162: C0 + C1 + C2 + C6 + C11 + C12 + C13 - C20 - C21 - C22 - C26 - C31
   - C32 - C33 >= -86
 R163: C0 + C2 + C6 + C12 + C13 + C15 - C20 - C22 - C26 - C32 - C33 - C35
   >= -48
 R164: C0 + C2 + C3 + C6 + C12 + C13 + C19 - C20 - C22 - C23 - C26 - C32
   - C33 - C39 >= -97
 R165: C0 + C1 + C2 + C7 + C10 + C12 + C13 - C20 - C21 - C22 - C27 - C30
   - C32 - C33 >= -75
 R166: C1 + C2 + C10 + C11 + C12 + C13 - C21 - C22 - C30 - C31 - C32 - C33
   >= -63
 R167: C1 + C2 + C10 + C12 + C13 + C15 - C21 - C22 - C30 - C32 - C33 - C35
   >= -69
 R168: C1 + C2 + C3 + C10 + C12 + C13 + C19 - C21 - C22 - C23 - C30 - C32
   - C33 - C39 >= -118
 R169: C0 + C2 + C7 + C12 + C13 + C14 - C20 - C22 - C27 - C32 - C33 - C34
   >= -37
 R170: C1 + C2 + C11 + C12 + C13 + C14 - C21 - C22 - C31 - C32 - C33 - C34
   >= -69
 R171: C2 + C12 + C13 + C14 + C15 - C22 - C32 - C33 - C34 - C35 >= -31
 R172: C2 + C3 + C12 + C13 + C14 + C19 - C22 - C23 - C32 - C33 - C34 - C39
   >= -80
 R173: C0 + C2 + C3 + C7 + C12 + C13 + C18 - C20 - C22 - C23 - C27 - C32
   - C33 - C38 >= -81
 R174: C1 + C2 + C3 + C11 + C12 + C13 + C18 - C21 - C22 - C23 - C31 - C32
   - C33 - C38 >= -113
 R175: C2 + C3 + C12 + C13 + C15 + C18 - C22 - C23 - C32 - C33 - C35 - C38
   >= -75
 R176: C2 + C3 + C12 + C13 + C18 + C19 - C22 - C23 - C32 - C33 - C38 - C39
   >= -87
 R177: C0 + C2 + C3 + C6 + C7 + C12 + C17 - C20 - C22 - C23 - C26 - C27
   - C32 - C37 >= -80
 R178: C0 + C1 + C2 + C3 + C6 + C11 + C12 + C17 - C20 - C21 - C22 - C23
   - C26 - C31 - C32 - C37 >= -123
 R179: C0 + C2 + C3 + C6 + C12 + C15 + C17 - C20 - C22 - C23 - C26 - C32
   - C35 - C37 >= -85
 R180: C0 + C2 + C3 + C6 + C12 + C17 + C19 - C20 - C22 - C23 - C26 - C32
   - C37 - C39 >= -97
 R181: C0 + C1 + C2 + C3 + C7 + C10 + C12 + C17 - C20 - C21 - C22 - C23
   - C27 - C30 - C32 - C37 >= -112
 R182: C1 + C2 + C3 + C10 + C11 + C12 + C17 - C21 - C22 - C23 - C30 - C31
   - C32 - C37 >= -100
 R183: C1 + C2 + C3 + C10 + C12 + C15 + C17 - C21 - C22 - C23 - C30 - C32
   - C35 - C37 >= -106
 R184: C1 + C2 + C3 + C10 + C12 + C17 + C19 - C21 - C22 - C23 - C30 - C32
   - C37 - C39 >= -118
 R185: C0 + C2 + C3 + C7 + C12 + C14 + C17 - C20 - C22 - C23 - C27 - C32
   - C34 - C37 >= -74
 R186: C1 + C2 + C3 + C11 + C12 + C14 + C17 - C21 - C22 - C23 - C31 - C32
   - C34 - C37 >= -106
 R187: C2 + C3 + C12 + C14 + C15 + C17 - C22 - C23 - C32 - C34 - C35 - C37
   >= -68
 R188: C2 + C3 + C12 + C14 + C17 + C19 - C22 - C23 - C32 - C34 - C37 - C39
   >= -80
 R189: C0 + C2 + C3 + C7 + C12 + C17 + C18 - C20 - C22 - C23 - C27 - C32
   - C37 - C38 >= -81
 R190: C1 + C2 + C3 + C11 + C12 + C17 + C18 - C21 - C22 - C23 - C31 - C32
   - C37 - C38 >= -113
 R191: C2 + C3 + C12 + C15 + C17 + C18 - C22 - C23 - C32 - C35 - C37 - C38
   >= -75
 R192: C2 + C3 + C12 + C17 + C18 + C19 - C22 - C23 - C32 - C37 - C38 - C39
   >= -87
 R193: C0 + C3 + C5 + C6 + C7 + C16 - C20 - C23 - C25 - C26 - C27 - C36
   >= -38
 R194: C0 + C1 + C3 + C5 + C6 + C11 + C16 - C20 - C21 - C23 - C25 - C26
   - C31 - C36 >= -81
 R195: C0 + C2 + C3 + C5 + C6 + C15 + C16 - C20 - C22 - C23 - C25 - C26
   - C35 - C36 >= -92
 R196: C0 + C3 + C5 + C6 + C16 + C19 - C20 - C23 - C25 - C26 - C36 - C39
   >= -55
 R197: C0 + C1 + C3 + C5 + C7 + C10 + C16 - C20 - C21 - C23 - C25 - C27
   - C30 - C36 >= -70
 R198: C0 + C1 + C3 + C5 + C10 + C11 + C16 - C20 - C21 - C23 - C25 - C30
   - C31 - C36 >= -69
 R199: C0 + C1 + C2 + C3 + C5 + C10 + C15 + C16 - C20 - C21 - C22 - C23
   - C25 - C30 - C35 - C36 >= -124
 R200: C0 + C1 + C3 + C5 + C10 + C16 + C19 - C20 - C21 - C23 - C25 - C30
   - C36 - C39 >= -87
 R201: C0 + C2 + C3 + C5 + C7 + C14 + C16 - C20 - C22 - C23 - C25 - C27
   - C34 - C36 >= -81
 R202: C0 + C1 + C2 + C3 + C5 + C11 + C14 + C16 - C20 - C21 - C22 - C23
   - C25 - C31 - C34 - C36 >= -124
 R203: C0 + C2 + C3 + C5 + C14 + C15 + C16 - C20 - C22 - C23 - C25 - C34
   - C35 - C36 >= -86
 R204: C0 + C2 + C3 + C5 + C14 + C16 + C19 - C20 - C22 - C23 - C25 - C34
   - C36 - C39 >= -98
 R205: C0 + C3 + C5 + C7 + C16 + C18 - C20 - C23 - C25 - C27 - C36 - C38
   >= -39
 R206: C0 + C1 + C3 + C5 + C11 + C16 + C18 - C20 - C21 - C23 - C25 - C31
   - C36 - C38 >= -82
 R207: C0 + C2 + C3 + C5 + C15 + C16 + C18 - C20 - C22 - C23 - C25 - C35
   - C36 - C38 >= -93
 R208: C0 + C3 + C5 + C16 + C18 + C19 - C20 - C23 - C25 - C36 - C38 - C39
   >= -56
 R209: C0 + C1 + C3 + C6 + C7 + C9 + C16 - C20 - C21 - C23 - C26 - C27
   - C29 - C36 >= -68
 R210: C0 + C1 + C3 + C6 + C9 + C11 + C16 - C20 - C21 - C23 - C26 - C29
   - C31 - C36 >= -67
 R211: C0 + C1 + C2 + C3 + C6 + C9 + C15 + C16 - C20 - C21 - C22 - C23
   - C26 - C29 - C35 - C36 >= -122
 R212: C0 + C1 + C3 + C6 + C9 + C16 + C19 - C20 - C21 - C23 - C26 - C29
   - C36 - C39 >= -85
 R213: C0 + C1 + C3 + C7 + C9 + C10 + C16 - C20 - C21 - C23 - C27 - C29
   - C30 - C36 >= -56
 R214: C1 + C3 + C9 + C10 + C11 + C16 - C21 - C23 - C29 - C30 - C31 - C36
   >= -44
 R215: C1 + C2 + C3 + C9 + C10 + C15 + C16 - C21 - C22 - C23 - C29 - C30
   - C35 - C36 >= -99
 R216: C1 + C3 + C9 + C10 + C16 + C19 - C21 - C23 - C29 - C30 - C36 - C39
   >= -62
 R217: C0 + C1 + C2 + C3 + C7 + C9 + C14 + C16 - C20 - C21 - C22 - C23
   - C27 - C29 - C34 - C36 >= -111
 R218: C1 + C2 + C3 + C9 + C11 + C14 + C16 - C21 - C22 - C23 - C29 - C31
   - C34 - C36 >= -99
 R219: C1 + C2 + C3 + C9 + C14 + C15 + C16 - C21 - C22 - C23 - C29 - C34
   - C35 - C36 >= -105
 R220: C1 + C2 + C3 + C9 + C14 + C16 + C19 - C21 - C22 - C23 - C29 - C34
   - C36 - C39 >= -117
 R221: C0 + C1 + C3 + C7 + C9 + C16 + C18 - C20 - C21 - C23 - C27 - C29
   - C36 - C38 >= -69
 R222: C1 + C3 + C9 + C11 + C16 + C18 - C21 - C23 - C29 - C31 - C36 - C38
   >= -57
 R223: C1 + C2 + C3 + C9 + C15 + C16 + C18 - C21 - C22 - C23 - C29 - C35
   - C36 - C38 >= -112
 R224: C1 + C3 + C9 + C16 + C18 + C19 - C21 - C23 - C29 - C36 - C38 - C39
   >= -75
 R225: C0 + C2 + C3 + C6 + C7 + C13 + C16 - C20 - C22 - C23 - C26 - C27
   - C33 - C36 >= -88
 R226: C0 + C1 + C2 + C3 + C6 + C11 + C13 + C16 - C20 - C21 - C22 - C23
   - C26 - C31 - C33 - C36 >= -131
 R227: C0 + C2 + C3 + C6 + C13 + C15 + C16 - C20 - C22 - C23 - C26 - C33
   - C35 - C36 >= -93
 R228: C0 + C2 + C3 + C6 + C13 + C16 + C19 - C20 - C22 - C23 - C26 - C33
   - C36 - C39 >= -105
 R229: C0 + C1 + C2 + C3 + C7 + C10 + C13 + C16 - C20 - C21 - C22 - C23
   - C27 - C30 - C33 - C36 >= -120
 R230: C1 + C2 + C3 + C10 + C11 + C13 + C16 - C21 - C22 - C23 - C30 - C31
   - C33 - C36 >= -108
 R231: C1 + C2 + C3 + C10 + C13 + C15 + C16 - C21 - C22 - C23 - C30 - C33
   - C35 - C36 >= -114
 R232: C1 + C2 + C3 + C10 + C13 + C16 + C19 - C21 - C22 - C23 - C30 - C33
   - C36 - C39 >= -126
 R233: C0 + C2 + C3 + C7 + C13 + C14 + C16 - C20 - C22 - C23 - C27 - C33
   - C34 - C36 >= -82
 R234: C1 + C2 + C3 + C11 + C13 + C14 + C16 - C21 - C22 - C23 - C31 - C33
   - C34 - C36 >= -114
 R235: C2 + C3 + C13 + C14 + C15 + C16 - C22 - C23 - C33 - C34 - C35 - C36
   >= -76
 R236: C2 + C3 + C13 + C14 + C16 + C19 - C22 - C23 - C33 - C34 - C36 - C39
   >= -88
 R237: C0 + C2 + C3 + C7 + C13 + C16 + C18 - C20 - C22 - C23 - C27 - C33
   - C36 - C38 >= -89
 R238: C1 + C2 + C3 + C11 + C13 + C16 + C18 - C21 - C22 - C23 - C31 - C33
   - C36 - C38 >= -121
 R239: C2 + C3 + C13 + C15 + C16 + C18 - C22 - C23 - C33 - C35 - C36 - C38
   >= -83
 R240: C2 + C3 + C13 + C16 + C18 + C19 - C22 - C23 - C33 - C36 - C38 - C39
   >= -95
 R241: C0 + C3 + C6 + C7 + C16 + C17 - C20 - C23 - C26 - C27 - C36 - C37
   >= -39
 R242: C0 + C1 + C3 + C6 + C11 + C16 + C17 - C20 - C21 - C23 - C26 - C31
   - C36 - C37 >= -82
 R243: C0 + C2 + C3 + C6 + C15 + C16 + C17 - C20 - C22 - C23 - C26 - C35
   - C36 - C37 >= -93
 R244: C0 + C3 + C6 + C16 + C17 + C19 - C20 - C23 - C26 - C36 - C37 - C39
   >= -56
 R245: C0 + C1 + C3 + C7 + C10 + C16 + C17 - C20 - C21 - C23 - C27 - C30
   - C36 - C37 >= -71
 R246: C1 + C3 + C10 + C11 + C16 + C17 - C21 - C23 - C30 - C31 - C36 - C37
   >= -59
 R247: C1 + C2 + C3 + C10 + C15 + C16 + C17 - C21 - C22 - C23 - C30 - C35
   - C36 - C37 >= -114
 R248: C1 + C3 + C10 + C16 + C17 + C19 - C21 - C23 - C30 - C36 - C37 - C39
   >= -77
 R249: C0 + C2 + C3 + C7 + C14 + C16 + C17 - C20 - C22 - C23 - C27 - C34
   - C36 - C37 >= -82
 R250: C1 + C2 + C3 + C11 + C14 + C16 + C17 - C21 - C22 - C23 - C31 - C34
   - C36 - C37 >= -114
 R251: C2 + C3 + C14 + C15 + C16 + C17 - C22 - C23 - C34 - C35 - C36 - C37
   >= -76
 R252: C2 + C3 + C14 + C16 + C17 + C19 - C22 - C23 - C34 - C36 - C37 - C39
   >= -88
 R253: C0 + C3 + C7 + C16 + C17 + C18 - C20 - C23 - C27 - C36 - C37 - C38
   >= -40
 R254: C1 + C3 + C11 + C16 + C17 + C18 - C21 - C23 - C31 - C36 - C37 - C38
   >= -72
 R255: C2 + C3 + C15 + C16 + C17 + C18 - C22 - C23 - C35 - C36 - C37 - C38
   >= -83
 R256: C3 + C16 + C17 + C18 + C19 - C23 - C36 - C37 - C38 - C39 >= -46
Bounds
End
